Route #1: 4 27 45 29 48 30
Route #2: 2 62 28 22 1 33
Route #3: 6 43 41 56 23 63 16 51
Route #4: 42 64 61 21 47 5
Route #5: 36 60 20 37 15 57 13 54 52
Route #6: 34 46 8 19 53 35 7
Route #7: 14 59 11 38
Route #8: 58 10 31 55 25 9
Route #9: 32 50 18 24 49 3 44
Route #10: 17 40 39 12 26
Cost 843